Optimal - objective value 1469.00000000
      3 x_3                    1                       0
      4 x_4                    1                       0
      8 x_8                    1         -7.60869565217391
     16 x_16                   1         -29.7826086956522
     20 x_20                   1                      -9
     23 x_23                   1                       0
     25 x_25                   1                      12
     28 x_28                   1                       7
     33 x_33                   1                       7
     36 x_36                   1                       9
     44 x_44                   1                      24
     46 x_46                   1                     -15
     51 x_51                   1         12.3913043478261
     55 x_55                   1                      13
     62 x_62                   1                     -28
     64 x_64                   1                       0
     71 x_71                   1                       0
     73 x_73                   1                       0
     78 x_78                   1                      21
     80 x_80                   1                       0
     84 x_84                   1                       0
     87 x_87                   1                     -37
     94 x_94                   1         11.1739130434783
     95 x_95                   1         7.21739130434782
    103 x_103                  1                      23
    106 x_106                  1                     -10
    114 x_114                  1                       0
    117 x_117                  1         44.7826086956522
    118 x_118                  1                       0
    126 x_126                  1         7.8695652173913
    132 x_132                  1                       7
    139 x_139                  1         -3.21739130434782
    142 x_142                  1         -7.78260869565218
    147 x_147                  1         -23.1739130434783
    151 x_151                  1         -4.21739130434782
    155 x_155                  1                       0
    160 x_160                  1                      -5
    162 x_162                  1                       0
    167 x_167                  1                       4
    172 x_172                  1         -3.60869565217391
    177 x_177                  1                      -1
    181 x_181                  1                       0
    185 x_185                  1                       0
    189 x_189                  1                       0
    192 x_192                  1                      12
    199 x_199                  1                       0
    203 x_203                  1                       0
    205 x_205                  1                       8
    210 x_210                  1                      14
    217 x_217                  1                       0
    220 x_220                  1                     -25
    225 x_225                  1         -11.6086956521739
    231 x_231                  1                     -20
    237 x_237                  1                       0
    242 x_242                  1                     -16
    246 x_246                  1                       0
    248 x_248                  1                       0
    251 x_251                  1                       0
    258 x_258                  1                      29
    262 x_262                  1                      16
    267 x_267                  1                       0
    273 x_273                  1                       0
    274 x_274                  1                       0
    278 x_278                  1                      14
    289 x_289                  1                       4
    295 x_295                  1         0.173913043478262
    298 x_298                  1                       0
    303 x_303                  1                      11
    305 x_305                  1                       0
    313 x_313                  1                       0
    320 x_320                  1         7.26086956521739
    323 x_323                  1                      -8
    327 x_327                  1                     -20
    335 x_335                  1                     -12
    336 x_336                  1         14.6521739130435
    339 x_339                  1                       5
    345 x_345                  1                       9
    349 x_349                  1                      25
    356 x_356                  1         -6.78260869565218
    357 x_357                  1         -21.7826086956522
    363 x_363                  1         -1.34782608695652
    366 x_366                  1         -18.1304347826087
    372 x_372                  1                     -15
    377 x_377                  1                       0
    381 x_381                  1                     -15
    386 x_386                  1                      -2
    389 x_389                  1                       0
    393 x_393                  1                      16
    395 x_395                  1         5.1304347826087
    405 x_405                  1                      17
    408 x_408                  1                       8
    414 x_414                  1                       0
    418 x_418                  1                       0
    423 x_423                  1                       0
    424 x_424                  1                      19
    430 x_430                  1                      23
    432 x_432                  1                      14
    436 x_436                  1                      12
    441 x_441                  1         3.60869565217391
    444 x_444                  1                      20
Optimal - objective value 1469.00000000
      3 x_3                    1                       0
      4 x_4                    1                       0
      8 x_8                    1         -7.60869565217391
     16 x_16                   1         -29.7826086956522
     20 x_20                   1                      -9
     23 x_23                   1                       0
     25 x_25                   1                      12
     28 x_28                   1                       7
     33 x_33                   1                       7
     36 x_36                   1                       9
     44 x_44                   1                      24
     46 x_46                   1                     -15
     51 x_51                   1         12.3913043478261
     55 x_55                   1                      13
     62 x_62                   1                     -28
     64 x_64                   1                       0
     71 x_71                   1                       0
     73 x_73                   1                       0
     78 x_78                   1                      21
     80 x_80                   1                       0
     84 x_84                   1                       0
     87 x_87                   1                     -37
     94 x_94                   1         11.1739130434783
     95 x_95                   1         7.21739130434782
    103 x_103                  1                      23
    106 x_106                  1                     -10
    114 x_114                  1                       0
    117 x_117                  1         44.7826086956522
    118 x_118                  1                       0
    126 x_126                  1         7.8695652173913
    132 x_132                  1                       7
    139 x_139                  1         -3.21739130434782
    142 x_142                  1         -7.78260869565218
    147 x_147                  1         -23.1739130434783
    151 x_151                  1         -4.21739130434782
    155 x_155                  1                       0
    160 x_160                  1                      -5
    162 x_162                  1                       0
    167 x_167                  1                       4
    172 x_172                  1         -3.60869565217391
    177 x_177                  1                      -1
    181 x_181                  1                       0
    185 x_185                  1                       0
    189 x_189                  1                       0
    192 x_192                  1                      12
    199 x_199                  1                       0
    203 x_203                  1                       0
    205 x_205                  1                       8
    210 x_210                  1                      14
    217 x_217                  1                       0
    220 x_220                  1                     -25
    225 x_225                  1         -11.6086956521739
    231 x_231                  1                     -20
    237 x_237                  1                       0
    242 x_242                  1                     -16
    246 x_246                  1                       0
    248 x_248                  1                       0
    251 x_251                  1                       0
    258 x_258                  1                      29
    262 x_262                  1                      16
    267 x_267                  1                       0
    273 x_273                  1                       0
    274 x_274                  1                       0
    278 x_278                  1                      14
    289 x_289                  1                       4
    295 x_295                  1         0.173913043478262
    298 x_298                  1                       0
    303 x_303                  1                      11
    305 x_305                  1                       0
    313 x_313                  1                       0
    320 x_320                  1         7.26086956521739
    323 x_323                  1                      -8
    327 x_327                  1                     -20
    335 x_335                  1                     -12
    336 x_336                  1         14.6521739130435
    339 x_339                  1                       5
    345 x_345                  1                       9
    349 x_349                  1                      25
    356 x_356                  1         -6.78260869565218
    357 x_357                  1         -21.7826086956522
    363 x_363                  1         -1.34782608695652
    366 x_366                  1         -18.1304347826087
    372 x_372                  1                     -15
    377 x_377                  1                       0
    381 x_381                  1                     -15
    386 x_386                  1                      -2
    389 x_389                  1                       0
    393 x_393                  1                      16
    395 x_395                  1         5.1304347826087
    405 x_405                  1                      17
    408 x_408                  1                       8
    414 x_414                  1                       0
    418 x_418                  1                       0
    423 x_423                  1                       0
    424 x_424                  1                      19
    430 x_430                  1                      23
    432 x_432                  1                      14
    436 x_436                  1                      12
    441 x_441                  1         3.60869565217391
    444 x_444                  1                      20
